NAME : A-n37-k5-20
TYPE : VRP-D
DIMENSION : 20
CAPACITY : 100
NODE_COORD_SECTION 
 1 38 46
 2 59 46
 3 96 42
 4 47 61
 5 26 15
 6 66 6
 7 96 7
 8 37 25
 9 68 92
 10 78 84
 11 82 28
 12 93 90
 13 74 42
 14 60 20
 15 78 58
 16 36 48
 17 45 36
 18 73 57
 19 10 91
 20 98 51
DEMAND_SECTION 
1 0 
2 16 
3 18 
4 1 
5 13 
6 8 
7 23 
8 7 
9 27 
10 1 
11 3 
12 6 
13 24 
14 19 
15 2 
16 5 
17 16 
18 7 
19 4 
20 22 
DEPOT_SECTION 
 1  
 -1  
EOF 
